20
1 0 2
3 1 2
3 2 1
4 1 2
4 3 1
5 1 1
5 3 2
6 2 2
6 3 2
6 4 2
6 5 1
7 0 1
7 2 1
7 4 1
7 6 2
8 1 1
8 2 2
8 3 2
8 5 1
8 7 2
9 1 2
9 2 1
9 3 2
9 4 2
10 0 2
10 2 2
10 5 2
10 7 1
10 9 1
11 0 1
11 2 1
11 4 1
11 5 1
11 6 1
11 7 2
11 8 1
12 0 1
12 2 2
12 3 2
12 4 1
12 5 2
12 7 2
12 8 2
13 1 1
13 3 1
13 4 2
13 5 2
13 6 2
13 7 1
13 8 1
13 9 2
13 10 2
13 11 1
13 12 1
14 0 1
14 1 1
14 2 1
14 3 1
14 7 2
14 11 2
14 13 2
15 0 1
15 7 1
15 12 1
15 13 2
15 14 1
16 1 1
16 3 1
16 6 2
16 7 1
16 8 1
16 11 1
16 14 2
17 1 1
17 3 1
17 8 1
17 9 2
17 11 2
17 12 1
17 13 1
17 15 1
17 16 2
18 0 1
18 1 2
18 4 1
18 6 1
18 8 1
18 9 1
18 10 2
18 11 2
18 12 1
18 15 1
18 17 2
19 1 1
19 3 2
19 4 1
19 7 1
19 9 2
19 11 2
19 12 1
19 15 1
19 17 2
19 18 2
